problem_generation/data/GISP/train/er_n=65_m=1194_p=0.60_SET2_setparam=100.00_alpha=0.50_786.lp
maximize
OBJ:100x0 + 100x1 + 100x2 + 100x3 + 100x4 + 100x5 + 100x6 + 100x7 + 100x8 + 100x9 + 100x10 + 100x11 + 100x12 + 100x13 + 100x14 + 100x15 + 100x16 + 100x17 + 100x18 + 100x19 + 100x20 + 100x21 + 100x22 + 100x23 + 100x24 + 100x25 + 100x26 + 100x27 + 100x28 + 100x29 + 100x30 + 100x31 + 100x32 + 100x33 + 100x34 + 100x35 + 100x36 + 100x37 + 100x38 + 100x39 + 100x40 + 100x41 + 100x42 + 100x43 + 100x44 + 100x45 + 100x46 + 100x47 + 100x48 + 100x49 + 100x50 + 100x51 + 100x52 + 100x53 + 100x54 + 100x55 + 100x56 + 100x57 + 100x58 + 100x59 + 100x60 + 100x61 + 100x62 + 100x63 + 100x64 - y47_53 - y26_39 - y29_41 - y11_14 - y29_50 - y21_46 - y40_59 - y33_38 - y10_45 - y33_56 - y22_28 - y3_24 - y32_60 - y22_37 - y14_51 - y17_53 - y48_49 - y6_43 - y48_58 - y21_41 - y21_50 - y10_40 - y10_49 - y44_51 - y2_54 - y32_55 - y3_28 - y14_28 - y13_60 - y36_52 - y28_48 - y36_61 - y59_63 - y5_55 - y17_57 - y48_53 - y21_36 - y6_47 - y29_49 - y40_49 - y40_58 - y10_26 - y33_37 - y10_44 - y12_63 - y25_42 - y3_5 - y32_50 - y51_63 - y24_46 - y43_59 - y1_53 - y24_55 - y14_32 - y16_51 - y24_64 - y16_60 - y17_43 - y47_56 - y9_39 - y17_61 - y6_24 - y58_62 - y6_33 - y29_44 - y6_51 - y39_48 - y10_21 - y39_57 - y2_17 - y31_62 - y2_35 - y32_36 - y24_32 - y3_9 - y24_41 - y3_18 - y32_54 - y43_54 - y1_48 - y5_27 - y17_29 - y28_29 - y47_51 - y9_34 - y17_47 - y28_47 - y5_54 - y6_19 - y9_52 - y29_30 - y50_62 - y61_62 - y6_37 - y42_58 - y21_35 - y6_46 - y2_12 - y10_25 - y62_63 - y2_21 - y54_59 - y23_62 - y3_4 - y4_58 - y43_49 - y35_45 - y16_41 - y16_50 - y24_63 - y9_11 - y5_22 - y17_24 - y46_60 - y57_60 - y5_49 - y50_57 - y42_53 - y11_56 - y20_43 - y31_43 - y20_52 - y31_61 - y54_63 - y13_22 - y4_53 - y32_35 - y43_53 - y16_54 - y17_28 - y38_60 - y5_35 - y28_37 - y9_33 - y5_44 - y7_63 - y6_9 - y30_46 - y50_61 - y0_51 - y8_64 - y0_60 - y11_60 - y23_25 - y20_38 - y39_51 - y2_11 - y20_56 - y31_56 - y4_48 - y23_61 - y53_62 - y4_57 - y34_58 - y46_50 - y15_53 - y5_30 - y5_39 - y8_32 - y8_41 - y30_50 - y0_46 - y8_59 - y42_61 - y0_55 - y12_20 - y20_33 - y0_64 - y11_64 - y12_38 - y12_47 - y4_43 - y1_19 - y16_17 - y34_53 - y1_28 - y5_7 - y46_54 - y15_48 - y7_62 - y8_27 - y19_27 - y19_36 - y27_49 - y0_32 - y30_45 - y0_41 - y42_56 - y30_63 - y20_37 - y31_37 - y23_33 - y1_5 - y4_38 - y34_39 - y1_14 - y4_47 - y34_48 - y45_57 - y3_51 - y3_60 - y14_60 - y26_34 - y57_58 - y15_61 - y38_63 - y8_22 - y27_35 - y11_18 - y8_31 - y11_27 - y0_36 - y11_36 - y30_58 - y20_23 - y33_51 - y33_60 - y23_37 - y25_56 - y22_50 - y37_48 - y22_59 - y56_61 - y3_55 - y14_55 - y3_64 - y18_25 - y15_38 - y26_38 - y7_43 - y18_43 - y0_4 - y7_61 - y8_26 - y19_44 - y30_44 - y12_23 - y41_59 - y10_53 - y44_55 - y25_51 - y33_64 - y3_32 - y3_41 - y14_41 - y14_50 - y15_24 - y15_33 - y26_33 - y15_51 - y7_56 - y41_45 - y4_5 - y4_14 - y2_44 - y25_46 - y10_57 - y3_27 - y34_42 - y37_47 - y22_58 - y7_15 - y3_63 - y7_24 - y15_37 - y26_37 - y18_33 - y0_3 - y0_12 - y40_48 - y48_61 - y21_44 - y0_21 - y29_57 - y10_34 - y41_49 - y33_45 - y44_54 - y2_48 - y25_50 - y3_22 - y22_35 - y22_44 - y3_40 - y14_40 - y3_49 - y15_23 - y36_55 - y18_37 - y29_34 - y11_16 - y40_52 - y29_61 - y40_61 - y2_25 - y25_27 - y2_43 - y2_52 - y3_26 - y14_26 - y43_62 - y16_63 - y36_41 - y7_14 - y47_50 - y28_46 - y36_59 - y9_42 - y5_53 - y17_55 - y9_51 - y17_64 - y6_27 - y9_60 - y21_25 - y0_2 - y29_47 - y54_58 - y25_40 - y2_47 - y3_12 - y32_48 - y51_61 - y32_57 - y43_57 - y24_53 - y13_62 - y35_62 - y36_45 - y36_63 - y9_46 - y58_60 - y9_64 - y29_42 - y6_58 - y2_24 - y31_60 - y3_7 - y24_39 - y35_39 - y43_52 - y24_48 - y32_61 - y16_44 - y36_40 - y9_32 - y17_45 - y5_52 - y28_63 - y21_42 - y39_50 - y39_59 - y54_57 - y31_64 - y23_60 - y13_25 - y1_41 - y24_43 - y32_56 - y43_56 - y13_52 - y35_52 - y16_48 - y1_59 - y5_20 - y5_29 - y36_44 - y9_27 - y6_12 - y9_45 - y5_56 - y58_59 - y42_51 - y21_28 - y61_64 - y19_58 - y42_60 - y11_63 - y31_41 - y2_14 - y20_50 - y39_63 - y12_46 - y2_23 - y20_59 - y23_55 - y32_33 - y16_25 - y32_51 - y1_45 - y1_54 - y13_56 - y24_56 - y46_53 - y1_63 - y5_24 - y46_62 - y5_42 - y5_51 - y6_16 - y27_57 - y20_36 - y10_13 - y2_9 - y31_45 - y39_58 - y23_41 - y20_54 - y4_37 - y31_54 - y12_59 - y13_24 - y1_22 - y4_55 - y16_20 - y32_37 - y24_33 - y53_60 - y32_46 - y16_38 - y1_49 - y16_47 - y1_58 - y5_19 - y9_17 - y38_53 - y17_30 - y49_53 - y9_26 - y26_60 - y49_62 - y9_35 - y50_54 - y30_48 - y50_63 - y61_63 - y12_27 - y23_27 - y2_4 - y20_40 - y31_40 - y23_36 - y39_53 - y20_49 - y23_45 - y1_8 - y12_54 - y1_17 - y4_50 - y53_64 - y45_60 - y1_44 - y46_52 - y8_34 - y30_34 - y8_43 - y19_43 - y30_43 - y19_52 - y12_13 - y8_61 - y30_61 - y4_18 - y31_44 - y23_40 - y1_12 - y13_23 - y4_54 - y16_19 - y34_55 - y37_51 - y56_64 - y46_47 - y15_41 - y26_41 - y5_18 - y9_16 - y26_59 - y38_61 - y19_38 - y27_51 - y30_47 - y11_52 - y23_26 - y41_62 - y4_22 - y44_58 - y53_54 - y53_63 - y14_62 - y26_36 - y46_51 - y15_45 - y26_63 - y27_28 - y18_59 - y19_24 - y11_29 - y8_42 - y4_8 - y23_30 - y1_2 - y25_58 - y22_34 - y1_11 - y22_43 - y1_20 - y37_41 - y53_58 - y3_48 - y34_63 - y56_63 - y15_22 - y15_31 - y26_31 - y26_40 - y7_36 - y15_49 - y8_10 - y48_55 - y11_15 - y48_64 - y0_33 - y12_16 - y52_61 - y10_55 - y2_51 - y22_38 - y14_34 - y22_47 - y37_45 - y56_58 - y14_52 - y15_17 - y7_13 - y18_22 - y15_35 - y18_31 - y7_49 - y8_14 - y19_23 - y48_59 - y0_19 - y40_55 - y21_51 - y6_62 - y11_28 - y29_64 - y4_7 - y10_41 - y33_43 - y33_52 - y25_48 - y10_59 - y22_24 - y22_51 - y3_47 - y14_56
 Subject to
C1: x0+x2-y0_2 <=1 
C2: x0+x3-y0_3 <=1 
C3: x0+x4-y0_4 <=1 
C4: x0+x5 <=1 
C5: x0+x8 <=1 
C6: x0+x10 <=1 
C7: x0+x12-y0_12 <=1 
C8: x0+x13 <=1 
C9: x0+x14 <=1 
C10: x0+x17 <=1 
C11: x0+x18 <=1 
C12: x0+x19-y0_19 <=1 
C13: x0+x21-y0_21 <=1 
C14: x0+x24 <=1 
C15: x0+x27 <=1 
C16: x0+x29 <=1 
C17: x0+x32-y0_32 <=1 
C18: x0+x33-y0_33 <=1 
C19: x0+x35 <=1 
C20: x0+x36-y0_36 <=1 
C21: x0+x37 <=1 
C22: x0+x40 <=1 
C23: x0+x41-y0_41 <=1 
C24: x0+x43 <=1 
C25: x0+x44 <=1 
C26: x0+x46-y0_46 <=1 
C27: x0+x47 <=1 
C28: x0+x48 <=1 
C29: x0+x49 <=1 
C30: x0+x50 <=1 
C31: x0+x51-y0_51 <=1 
C32: x0+x52 <=1 
C33: x0+x53 <=1 
C34: x0+x55-y0_55 <=1 
C35: x0+x57 <=1 
C36: x0+x60-y0_60 <=1 
C37: x0+x62 <=1 
C38: x0+x63 <=1 
C39: x0+x64-y0_64 <=1 
C40: x1+x2-y1_2 <=1 
C41: x1+x4 <=1 
C42: x1+x5-y1_5 <=1 
C43: x1+x6 <=1 
C44: x1+x7 <=1 
C45: x1+x8-y1_8 <=1 
C46: x1+x11-y1_11 <=1 
C47: x1+x12-y1_12 <=1 
C48: x1+x13 <=1 
C49: x1+x14-y1_14 <=1 
C50: x1+x17-y1_17 <=1 
C51: x1+x19-y1_19 <=1 
C52: x1+x20-y1_20 <=1 
C53: x1+x21 <=1 
C54: x1+x22-y1_22 <=1 
C55: x1+x25 <=1 
C56: x1+x28-y1_28 <=1 
C57: x1+x29 <=1 
C58: x1+x30 <=1 
C59: x1+x31 <=1 
C60: x1+x37 <=1 
C61: x1+x41-y1_41 <=1 
C62: x1+x42 <=1 
C63: x1+x44-y1_44 <=1 
C64: x1+x45-y1_45 <=1 
C65: x1+x47 <=1 
C66: x1+x48-y1_48 <=1 
C67: x1+x49-y1_49 <=1 
C68: x1+x50 <=1 
C69: x1+x53-y1_53 <=1 
C70: x1+x54-y1_54 <=1 
C71: x1+x56 <=1 
C72: x1+x57 <=1 
C73: x1+x58-y1_58 <=1 
C74: x1+x59-y1_59 <=1 
C75: x1+x61 <=1 
C76: x1+x63-y1_63 <=1 
C77: x1+x64 <=1 
C78: x2+x3 <=1 
C79: x2+x4-y2_4 <=1 
C80: x2+x5 <=1 
C81: x2+x9-y2_9 <=1 
C82: x2+x11-y2_11 <=1 
C83: x2+x12-y2_12 <=1 
C84: x2+x14-y2_14 <=1 
C85: x2+x15 <=1 
C86: x2+x16 <=1 
C87: x2+x17-y2_17 <=1 
C88: x2+x18 <=1 
C89: x2+x20 <=1 
C90: x2+x21-y2_21 <=1 
C91: x2+x23-y2_23 <=1 
C92: x2+x24-y2_24 <=1 
C93: x2+x25-y2_25 <=1 
C94: x2+x26 <=1 
C95: x2+x27 <=1 
C96: x2+x30 <=1 
C97: x2+x31 <=1 
C98: x2+x33 <=1 
C99: x2+x35-y2_35 <=1 
C100: x2+x36 <=1 
C101: x2+x37 <=1 
C102: x2+x39 <=1 
C103: x2+x43-y2_43 <=1 
C104: x2+x44-y2_44 <=1 
C105: x2+x46 <=1 
C106: x2+x47-y2_47 <=1 
C107: x2+x48-y2_48 <=1 
C108: x2+x50 <=1 
C109: x2+x51-y2_51 <=1 
C110: x2+x52-y2_52 <=1 
C111: x2+x53 <=1 
C112: x2+x54-y2_54 <=1 
C113: x2+x55 <=1 
C114: x2+x57 <=1 
C115: x3+x4-y3_4 <=1 
C116: x3+x5-y3_5 <=1 
C117: x3+x6 <=1 
C118: x3+x7-y3_7 <=1 
C119: x3+x9-y3_9 <=1 
C120: x3+x12-y3_12 <=1 
C121: x3+x14 <=1 
C122: x3+x15 <=1 
C123: x3+x18-y3_18 <=1 
C124: x3+x21 <=1 
C125: x3+x22-y3_22 <=1 
C126: x3+x24-y3_24 <=1 
C127: x3+x26-y3_26 <=1 
C128: x3+x27-y3_27 <=1 
C129: x3+x28-y3_28 <=1 
C130: x3+x29 <=1 
C131: x3+x30 <=1 
C132: x3+x31 <=1 
C133: x3+x32-y3_32 <=1 
C134: x3+x33 <=1 
C135: x3+x40-y3_40 <=1 
C136: x3+x41-y3_41 <=1 
C137: x3+x43 <=1 
C138: x3+x44 <=1 
C139: x3+x47-y3_47 <=1 
C140: x3+x48-y3_48 <=1 
C141: x3+x49-y3_49 <=1 
C142: x3+x51-y3_51 <=1 
C143: x3+x52 <=1 
C144: x3+x55-y3_55 <=1 
C145: x3+x60-y3_60 <=1 
C146: x3+x62 <=1 
C147: x3+x63-y3_63 <=1 
C148: x3+x64-y3_64 <=1 
C149: x4+x5-y4_5 <=1 
C150: x4+x7-y4_7 <=1 
C151: x4+x8-y4_8 <=1 
C152: x4+x12 <=1 
C153: x4+x13 <=1 
C154: x4+x14-y4_14 <=1 
C155: x4+x15 <=1 
C156: x4+x16 <=1 
C157: x4+x18-y4_18 <=1 
C158: x4+x21 <=1 
C159: x4+x22-y4_22 <=1 
C160: x4+x23 <=1 
C161: x4+x24 <=1 
C162: x4+x29 <=1 
C163: x4+x33 <=1 
C164: x4+x34 <=1 
C165: x4+x35 <=1 
C166: x4+x36 <=1 
C167: x4+x37-y4_37 <=1 
C168: x4+x38-y4_38 <=1 
C169: x4+x40 <=1 
C170: x4+x43-y4_43 <=1 
C171: x4+x47-y4_47 <=1 
C172: x4+x48-y4_48 <=1 
C173: x4+x49 <=1 
C174: x4+x50-y4_50 <=1 
C175: x4+x53-y4_53 <=1 
C176: x4+x54-y4_54 <=1 
C177: x4+x55-y4_55 <=1 
C178: x4+x57-y4_57 <=1 
C179: x4+x58-y4_58 <=1 
C180: x4+x59 <=1 
C181: x5+x7-y5_7 <=1 
C182: x5+x9 <=1 
C183: x5+x11 <=1 
C184: x5+x12 <=1 
C185: x5+x13 <=1 
C186: x5+x14 <=1 
C187: x5+x16 <=1 
C188: x5+x17 <=1 
C189: x5+x18-y5_18 <=1 
C190: x5+x19-y5_19 <=1 
C191: x5+x20-y5_20 <=1 
C192: x5+x22-y5_22 <=1 
C193: x5+x23 <=1 
C194: x5+x24-y5_24 <=1 
C195: x5+x25 <=1 
C196: x5+x26 <=1 
C197: x5+x27-y5_27 <=1 
C198: x5+x28 <=1 
C199: x5+x29-y5_29 <=1 
C200: x5+x30-y5_30 <=1 
C201: x5+x33 <=1 
C202: x5+x34 <=1 
C203: x5+x35-y5_35 <=1 
C204: x5+x36 <=1 
C205: x5+x37 <=1 
C206: x5+x39-y5_39 <=1 
C207: x5+x42-y5_42 <=1 
C208: x5+x43 <=1 
C209: x5+x44-y5_44 <=1 
C210: x5+x47 <=1 
C211: x5+x49-y5_49 <=1 
C212: x5+x50 <=1 
C213: x5+x51-y5_51 <=1 
C214: x5+x52-y5_52 <=1 
C215: x5+x53-y5_53 <=1 
C216: x5+x54-y5_54 <=1 
C217: x5+x55-y5_55 <=1 
C218: x5+x56-y5_56 <=1 
C219: x5+x57 <=1 
C220: x5+x58 <=1 
C221: x5+x59 <=1 
C222: x5+x60 <=1 
C223: x5+x63 <=1 
C224: x6+x7 <=1 
C225: x6+x8 <=1 
C226: x6+x9-y6_9 <=1 
C227: x6+x10 <=1 
C228: x6+x12-y6_12 <=1 
C229: x6+x16-y6_16 <=1 
C230: x6+x17 <=1 
C231: x6+x18 <=1 
C232: x6+x19-y6_19 <=1 
C233: x6+x22 <=1 
C234: x6+x24-y6_24 <=1 
C235: x6+x25 <=1 
C236: x6+x27-y6_27 <=1 
C237: x6+x33-y6_33 <=1 
C238: x6+x34 <=1 
C239: x6+x36 <=1 
C240: x6+x37-y6_37 <=1 
C241: x6+x38 <=1 
C242: x6+x39 <=1 
C243: x6+x40 <=1 
C244: x6+x42 <=1 
C245: x6+x43-y6_43 <=1 
C246: x6+x44 <=1 
C247: x6+x46-y6_46 <=1 
C248: x6+x47-y6_47 <=1 
C249: x6+x51-y6_51 <=1 
C250: x6+x52 <=1 
C251: x6+x53 <=1 
C252: x6+x58-y6_58 <=1 
C253: x6+x62-y6_62 <=1 
C254: x6+x64 <=1 
C255: x7+x8 <=1 
C256: x7+x12 <=1 
C257: x7+x13-y7_13 <=1 
C258: x7+x14-y7_14 <=1 
C259: x7+x15-y7_15 <=1 
C260: x7+x24-y7_24 <=1 
C261: x7+x25 <=1 
C262: x7+x30 <=1 
C263: x7+x32 <=1 
C264: x7+x33 <=1 
C265: x7+x35 <=1 
C266: x7+x36-y7_36 <=1 
C267: x7+x39 <=1 
C268: x7+x41 <=1 
C269: x7+x43-y7_43 <=1 
C270: x7+x44 <=1 
C271: x7+x45 <=1 
C272: x7+x47 <=1 
C273: x7+x48 <=1 
C274: x7+x49-y7_49 <=1 
C275: x7+x51 <=1 
C276: x7+x53 <=1 
C277: x7+x54 <=1 
C278: x7+x55 <=1 
C279: x7+x56-y7_56 <=1 
C280: x7+x57 <=1 
C281: x7+x61-y7_61 <=1 
C282: x7+x62-y7_62 <=1 
C283: x7+x63-y7_63 <=1 
C284: x8+x9 <=1 
C285: x8+x10-y8_10 <=1 
C286: x8+x11 <=1 
C287: x8+x12 <=1 
C288: x8+x14-y8_14 <=1 
C289: x8+x18 <=1 
C290: x8+x19 <=1 
C291: x8+x21 <=1 
C292: x8+x22-y8_22 <=1 
C293: x8+x23 <=1 
C294: x8+x26-y8_26 <=1 
C295: x8+x27-y8_27 <=1 
C296: x8+x29 <=1 
C297: x8+x30 <=1 
C298: x8+x31-y8_31 <=1 
C299: x8+x32-y8_32 <=1 
C300: x8+x34-y8_34 <=1 
C301: x8+x38 <=1 
C302: x8+x41-y8_41 <=1 
C303: x8+x42-y8_42 <=1 
C304: x8+x43-y8_43 <=1 
C305: x8+x47 <=1 
C306: x8+x52 <=1 
C307: x8+x53 <=1 
C308: x8+x54 <=1 
C309: x8+x56 <=1 
C310: x8+x58 <=1 
C311: x8+x59-y8_59 <=1 
C312: x8+x60 <=1 
C313: x8+x61-y8_61 <=1 
C314: x8+x62 <=1 
C315: x8+x63 <=1 
C316: x8+x64-y8_64 <=1 
C317: x9+x11-y9_11 <=1 
C318: x9+x12 <=1 
C319: x9+x14 <=1 
C320: x9+x16-y9_16 <=1 
C321: x9+x17-y9_17 <=1 
C322: x9+x18 <=1 
C323: x9+x26-y9_26 <=1 
C324: x9+x27-y9_27 <=1 
C325: x9+x29 <=1 
C326: x9+x32-y9_32 <=1 
C327: x9+x33-y9_33 <=1 
C328: x9+x34-y9_34 <=1 
C329: x9+x35-y9_35 <=1 
C330: x9+x36 <=1 
C331: x9+x39-y9_39 <=1 
C332: x9+x42-y9_42 <=1 
C333: x9+x45-y9_45 <=1 
C334: x9+x46-y9_46 <=1 
C335: x9+x47 <=1 
C336: x9+x48 <=1 
C337: x9+x51-y9_51 <=1 
C338: x9+x52-y9_52 <=1 
C339: x9+x60-y9_60 <=1 
C340: x9+x61 <=1 
C341: x9+x64-y9_64 <=1 
C342: x10+x11 <=1 
C343: x10+x13-y10_13 <=1 
C344: x10+x17 <=1 
C345: x10+x19 <=1 
C346: x10+x21-y10_21 <=1 
C347: x10+x25-y10_25 <=1 
C348: x10+x26-y10_26 <=1 
C349: x10+x28 <=1 
C350: x10+x32 <=1 
C351: x10+x34-y10_34 <=1 
C352: x10+x35 <=1 
C353: x10+x40-y10_40 <=1 
C354: x10+x41-y10_41 <=1 
C355: x10+x43 <=1 
C356: x10+x44-y10_44 <=1 
C357: x10+x45-y10_45 <=1 
C358: x10+x46 <=1 
C359: x10+x49-y10_49 <=1 
C360: x10+x52 <=1 
C361: x10+x53-y10_53 <=1 
C362: x10+x55-y10_55 <=1 
C363: x10+x57-y10_57 <=1 
C364: x10+x59-y10_59 <=1 
C365: x10+x60 <=1 
C366: x10+x63 <=1 
C367: x10+x64 <=1 
C368: x11+x12 <=1 
C369: x11+x14-y11_14 <=1 
C370: x11+x15-y11_15 <=1 
C371: x11+x16-y11_16 <=1 
C372: x11+x18-y11_18 <=1 
C373: x11+x19 <=1 
C374: x11+x20 <=1 
C375: x11+x21 <=1 
C376: x11+x22 <=1 
C377: x11+x24 <=1 
C378: x11+x25 <=1 
C379: x11+x27-y11_27 <=1 
C380: x11+x28-y11_28 <=1 
C381: x11+x29-y11_29 <=1 
C382: x11+x32 <=1 
C383: x11+x33 <=1 
C384: x11+x36-y11_36 <=1 
C385: x11+x38 <=1 
C386: x11+x39 <=1 
C387: x11+x41 <=1 
C388: x11+x42 <=1 
C389: x11+x43 <=1 
C390: x11+x45 <=1 
C391: x11+x47 <=1 
C392: x11+x48 <=1 
C393: x11+x49 <=1 
C394: x11+x51 <=1 
C395: x11+x52-y11_52 <=1 
C396: x11+x56-y11_56 <=1 
C397: x11+x57 <=1 
C398: x11+x60-y11_60 <=1 
C399: x11+x63-y11_63 <=1 
C400: x11+x64-y11_64 <=1 
C401: x12+x13-y12_13 <=1 
C402: x12+x16-y12_16 <=1 
C403: x12+x18 <=1 
C404: x12+x20-y12_20 <=1 
C405: x12+x21 <=1 
C406: x12+x23-y12_23 <=1 
C407: x12+x24 <=1 
C408: x12+x27-y12_27 <=1 
C409: x12+x33 <=1 
C410: x12+x34 <=1 
C411: x12+x36 <=1 
C412: x12+x37 <=1 
C413: x12+x38-y12_38 <=1 
C414: x12+x46-y12_46 <=1 
C415: x12+x47-y12_47 <=1 
C416: x12+x49 <=1 
C417: x12+x50 <=1 
C418: x12+x51 <=1 
C419: x12+x52 <=1 
C420: x12+x54-y12_54 <=1 
C421: x12+x56 <=1 
C422: x12+x57 <=1 
C423: x12+x58 <=1 
C424: x12+x59-y12_59 <=1 
C425: x12+x62 <=1 
C426: x12+x63-y12_63 <=1 
C427: x12+x64 <=1 
C428: x13+x19 <=1 
C429: x13+x20 <=1 
C430: x13+x21 <=1 
C431: x13+x22-y13_22 <=1 
C432: x13+x23-y13_23 <=1 
C433: x13+x24-y13_24 <=1 
C434: x13+x25-y13_25 <=1 
C435: x13+x26 <=1 
C436: x13+x30 <=1 
C437: x13+x32 <=1 
C438: x13+x38 <=1 
C439: x13+x39 <=1 
C440: x13+x40 <=1 
C441: x13+x41 <=1 
C442: x13+x43 <=1 
C443: x13+x44 <=1 
C444: x13+x45 <=1 
C445: x13+x46 <=1 
C446: x13+x47 <=1 
C447: x13+x48 <=1 
C448: x13+x51 <=1 
C449: x13+x52-y13_52 <=1 
C450: x13+x54 <=1 
C451: x13+x55 <=1 
C452: x13+x56-y13_56 <=1 
C453: x13+x58 <=1 
C454: x13+x60-y13_60 <=1 
C455: x13+x62-y13_62 <=1 
C456: x13+x64 <=1 
C457: x14+x17 <=1 
C458: x14+x19 <=1 
C459: x14+x22 <=1 
C460: x14+x23 <=1 
C461: x14+x25 <=1 
C462: x14+x26-y14_26 <=1 
C463: x14+x28-y14_28 <=1 
C464: x14+x32-y14_32 <=1 
C465: x14+x33 <=1 
C466: x14+x34-y14_34 <=1 
C467: x14+x40-y14_40 <=1 
C468: x14+x41-y14_41 <=1 
C469: x14+x42 <=1 
C470: x14+x45 <=1 
C471: x14+x49 <=1 
C472: x14+x50-y14_50 <=1 
C473: x14+x51-y14_51 <=1 
C474: x14+x52-y14_52 <=1 
C475: x14+x55-y14_55 <=1 
C476: x14+x56-y14_56 <=1 
C477: x14+x57 <=1 
C478: x14+x58 <=1 
C479: x14+x59 <=1 
C480: x14+x60-y14_60 <=1 
C481: x14+x61 <=1 
C482: x14+x62-y14_62 <=1 
C483: x15+x16 <=1 
C484: x15+x17-y15_17 <=1 
C485: x15+x22-y15_22 <=1 
C486: x15+x23-y15_23 <=1 
C487: x15+x24-y15_24 <=1 
C488: x15+x25 <=1 
C489: x15+x26 <=1 
C490: x15+x27 <=1 
C491: x15+x28 <=1 
C492: x15+x29 <=1 
C493: x15+x31-y15_31 <=1 
C494: x15+x33-y15_33 <=1 
C495: x15+x34 <=1 
C496: x15+x35-y15_35 <=1 
C497: x15+x37-y15_37 <=1 
C498: x15+x38-y15_38 <=1 
C499: x15+x39 <=1 
C500: x15+x40 <=1 
C501: x15+x41-y15_41 <=1 
C502: x15+x45-y15_45 <=1 
C503: x15+x46 <=1 
C504: x15+x48-y15_48 <=1 
C505: x15+x49-y15_49 <=1 
C506: x15+x50 <=1 
C507: x15+x51-y15_51 <=1 
C508: x15+x52 <=1 
C509: x15+x53-y15_53 <=1 
C510: x15+x54 <=1 
C511: x15+x55 <=1 
C512: x15+x60 <=1 
C513: x15+x61-y15_61 <=1 
C514: x15+x62 <=1 
C515: x15+x64 <=1 
C516: x16+x17-y16_17 <=1 
C517: x16+x19-y16_19 <=1 
C518: x16+x20-y16_20 <=1 
C519: x16+x21 <=1 
C520: x16+x22 <=1 
C521: x16+x24 <=1 
C522: x16+x25-y16_25 <=1 
C523: x16+x27 <=1 
C524: x16+x28 <=1 
C525: x16+x32 <=1 
C526: x16+x34 <=1 
C527: x16+x38-y16_38 <=1 
C528: x16+x39 <=1 
C529: x16+x41-y16_41 <=1 
C530: x16+x43 <=1 
C531: x16+x44-y16_44 <=1 
C532: x16+x46 <=1 
C533: x16+x47-y16_47 <=1 
C534: x16+x48-y16_48 <=1 
C535: x16+x50-y16_50 <=1 
C536: x16+x51-y16_51 <=1 
C537: x16+x53 <=1 
C538: x16+x54-y16_54 <=1 
C539: x16+x55 <=1 
C540: x16+x57 <=1 
C541: x16+x60-y16_60 <=1 
C542: x16+x63-y16_63 <=1 
C543: x17+x18 <=1 
C544: x17+x24-y17_24 <=1 
C545: x17+x27 <=1 
C546: x17+x28-y17_28 <=1 
C547: x17+x29-y17_29 <=1 
C548: x17+x30-y17_30 <=1 
C549: x17+x31 <=1 
C550: x17+x33 <=1 
C551: x17+x34 <=1 
C552: x17+x35 <=1 
C553: x17+x38 <=1 
C554: x17+x40 <=1 
C555: x17+x42 <=1 
C556: x17+x43-y17_43 <=1 
C557: x17+x45-y17_45 <=1 
C558: x17+x46 <=1 
C559: x17+x47-y17_47 <=1 
C560: x17+x48 <=1 
C561: x17+x50 <=1 
C562: x17+x53-y17_53 <=1 
C563: x17+x55-y17_55 <=1 
C564: x17+x57-y17_57 <=1 
C565: x17+x61-y17_61 <=1 
C566: x17+x64-y17_64 <=1 
C567: x18+x19 <=1 
C568: x18+x20 <=1 
C569: x18+x22-y18_22 <=1 
C570: x18+x23 <=1 
C571: x18+x24 <=1 
C572: x18+x25-y18_25 <=1 
C573: x18+x26 <=1 
C574: x18+x29 <=1 
C575: x18+x30 <=1 
C576: x18+x31-y18_31 <=1 
C577: x18+x33-y18_33 <=1 
C578: x18+x37-y18_37 <=1 
C579: x18+x40 <=1 
C580: x18+x41 <=1 
C581: x18+x43-y18_43 <=1 
C582: x18+x46 <=1 
C583: x18+x47 <=1 
C584: x18+x48 <=1 
C585: x18+x49 <=1 
C586: x18+x51 <=1 
C587: x18+x53 <=1 
C588: x18+x55 <=1 
C589: x18+x57 <=1 
C590: x18+x59-y18_59 <=1 
C591: x18+x64 <=1 
C592: x19+x20 <=1 
C593: x19+x22 <=1 
C594: x19+x23-y19_23 <=1 
C595: x19+x24-y19_24 <=1 
C596: x19+x25 <=1 
C597: x19+x27-y19_27 <=1 
C598: x19+x28 <=1 
C599: x19+x29 <=1 
C600: x19+x30 <=1 
C601: x19+x31 <=1 
C602: x19+x32 <=1 
C603: x19+x36-y19_36 <=1 
C604: x19+x37 <=1 
C605: x19+x38-y19_38 <=1 
C606: x19+x39 <=1 
C607: x19+x41 <=1 
C608: x19+x42 <=1 
C609: x19+x43-y19_43 <=1 
C610: x19+x44-y19_44 <=1 
C611: x19+x50 <=1 
C612: x19+x52-y19_52 <=1 
C613: x19+x53 <=1 
C614: x19+x54 <=1 
C615: x19+x56 <=1 
C616: x19+x58-y19_58 <=1 
C617: x20+x21 <=1 
C618: x20+x23-y20_23 <=1 
C619: x20+x24 <=1 
C620: x20+x26 <=1 
C621: x20+x27 <=1 
C622: x20+x30 <=1 
C623: x20+x31 <=1 
C624: x20+x32 <=1 
C625: x20+x33-y20_33 <=1 
C626: x20+x34 <=1 
C627: x20+x36-y20_36 <=1 
C628: x20+x37-y20_37 <=1 
C629: x20+x38-y20_38 <=1 
C630: x20+x40-y20_40 <=1 
C631: x20+x41 <=1 
C632: x20+x42 <=1 
C633: x20+x43-y20_43 <=1 
C634: x20+x45 <=1 
C635: x20+x46 <=1 
C636: x20+x49-y20_49 <=1 
C637: x20+x50-y20_50 <=1 
C638: x20+x51 <=1 
C639: x20+x52-y20_52 <=1 
C640: x20+x53 <=1 
C641: x20+x54-y20_54 <=1 
C642: x20+x55 <=1 
C643: x20+x56-y20_56 <=1 
C644: x20+x59-y20_59 <=1 
C645: x20+x62 <=1 
C646: x21+x22 <=1 
C647: x21+x25-y21_25 <=1 
C648: x21+x28-y21_28 <=1 
C649: x21+x29 <=1 
C650: x21+x30 <=1 
C651: x21+x33 <=1 
C652: x21+x35-y21_35 <=1 
C653: x21+x36-y21_36 <=1 
C654: x21+x40 <=1 
C655: x21+x41-y21_41 <=1 
C656: x21+x42-y21_42 <=1 
C657: x21+x44-y21_44 <=1 
C658: x21+x45 <=1 
C659: x21+x46-y21_46 <=1 
C660: x21+x47 <=1 
C661: x21+x50-y21_50 <=1 
C662: x21+x51-y21_51 <=1 
C663: x21+x52 <=1 
C664: x21+x53 <=1 
C665: x21+x60 <=1 
C666: x21+x61 <=1 
C667: x21+x63 <=1 
C668: x21+x64 <=1 
C669: x22+x23 <=1 
C670: x22+x24-y22_24 <=1 
C671: x22+x25 <=1 
C672: x22+x27 <=1 
C673: x22+x28-y22_28 <=1 
C674: x22+x30 <=1 
C675: x22+x34-y22_34 <=1 
C676: x22+x35-y22_35 <=1 
C677: x22+x36 <=1 
C678: x22+x37-y22_37 <=1 
C679: x22+x38-y22_38 <=1 
C680: x22+x39 <=1 
C681: x22+x40 <=1 
C682: x22+x41 <=1 
C683: x22+x42 <=1 
C684: x22+x43-y22_43 <=1 
C685: x22+x44-y22_44 <=1 
C686: x22+x47-y22_47 <=1 
C687: x22+x49 <=1 
C688: x22+x50-y22_50 <=1 
C689: x22+x51-y22_51 <=1 
C690: x22+x52 <=1 
C691: x22+x53 <=1 
C692: x22+x56 <=1 
C693: x22+x58-y22_58 <=1 
C694: x22+x59-y22_59 <=1 
C695: x22+x61 <=1 
C696: x22+x62 <=1 
C697: x22+x63 <=1 
C698: x22+x64 <=1 
C699: x23+x24 <=1 
C700: x23+x25-y23_25 <=1 
C701: x23+x26-y23_26 <=1 
C702: x23+x27-y23_27 <=1 
C703: x23+x28 <=1 
C704: x23+x29 <=1 
C705: x23+x30-y23_30 <=1 
C706: x23+x31 <=1 
C707: x23+x33-y23_33 <=1 
C708: x23+x34 <=1 
C709: x23+x36-y23_36 <=1 
C710: x23+x37-y23_37 <=1 
C711: x23+x38 <=1 
C712: x23+x40-y23_40 <=1 
C713: x23+x41-y23_41 <=1 
C714: x23+x42 <=1 
C715: x23+x43 <=1 
C716: x23+x45-y23_45 <=1 
C717: x23+x46 <=1 
C718: x23+x50 <=1 
C719: x23+x51 <=1 
C720: x23+x52 <=1 
C721: x23+x53 <=1 
C722: x23+x54 <=1 
C723: x23+x55-y23_55 <=1 
C724: x23+x59 <=1 
C725: x23+x60-y23_60 <=1 
C726: x23+x61-y23_61 <=1 
C727: x23+x62-y23_62 <=1 
C728: x23+x63 <=1 
C729: x24+x25 <=1 
C730: x24+x27 <=1 
C731: x24+x28 <=1 
C732: x24+x29 <=1 
C733: x24+x30 <=1 
C734: x24+x31 <=1 
C735: x24+x32-y24_32 <=1 
C736: x24+x33-y24_33 <=1 
C737: x24+x34 <=1 
C738: x24+x39-y24_39 <=1 
C739: x24+x41-y24_41 <=1 
C740: x24+x42 <=1 
C741: x24+x43-y24_43 <=1 
C742: x24+x44 <=1 
C743: x24+x46-y24_46 <=1 
C744: x24+x47 <=1 
C745: x24+x48-y24_48 <=1 
C746: x24+x53-y24_53 <=1 
C747: x24+x55-y24_55 <=1 
C748: x24+x56-y24_56 <=1 
C749: x24+x59 <=1 
C750: x24+x60 <=1 
C751: x24+x63-y24_63 <=1 
C752: x24+x64-y24_64 <=1 
C753: x25+x27-y25_27 <=1 
C754: x25+x31 <=1 
C755: x25+x32 <=1 
C756: x25+x34 <=1 
C757: x25+x35 <=1 
C758: x25+x36 <=1 
C759: x25+x40-y25_40 <=1 
C760: x25+x42-y25_42 <=1 
C761: x25+x44 <=1 
C762: x25+x46-y25_46 <=1 
C763: x25+x48-y25_48 <=1 
C764: x25+x49 <=1 
C765: x25+x50-y25_50 <=1 
C766: x25+x51-y25_51 <=1 
C767: x25+x52 <=1 
C768: x25+x53 <=1 
C769: x25+x55 <=1 
C770: x25+x56-y25_56 <=1 
C771: x25+x57 <=1 
C772: x25+x58-y25_58 <=1 
C773: x25+x61 <=1 
C774: x25+x62 <=1 
C775: x25+x64 <=1 
C776: x26+x27 <=1 
C777: x26+x28 <=1 
C778: x26+x29 <=1 
C779: x26+x31-y26_31 <=1 
C780: x26+x33-y26_33 <=1 
C781: x26+x34-y26_34 <=1 
C782: x26+x35 <=1 
C783: x26+x36-y26_36 <=1 
C784: x26+x37-y26_37 <=1 
C785: x26+x38-y26_38 <=1 
C786: x26+x39-y26_39 <=1 
C787: x26+x40-y26_40 <=1 
C788: x26+x41-y26_41 <=1 
C789: x26+x48 <=1 
C790: x26+x50 <=1 
C791: x26+x52 <=1 
C792: x26+x55 <=1 
C793: x26+x58 <=1 
C794: x26+x59-y26_59 <=1 
C795: x26+x60-y26_60 <=1 
C796: x26+x63-y26_63 <=1 
C797: x26+x64 <=1 
C798: x27+x28-y27_28 <=1 
C799: x27+x29 <=1 
C800: x27+x30 <=1 
C801: x27+x34 <=1 
C802: x27+x35-y27_35 <=1 
C803: x27+x36 <=1 
C804: x27+x37 <=1 
C805: x27+x39 <=1 
C806: x27+x47 <=1 
C807: x27+x49-y27_49 <=1 
C808: x27+x50 <=1 
C809: x27+x51-y27_51 <=1 
C810: x27+x52 <=1 
C811: x27+x54 <=1 
C812: x27+x57-y27_57 <=1 
C813: x27+x58 <=1 
C814: x27+x59 <=1 
C815: x28+x29-y28_29 <=1 
C816: x28+x30 <=1 
C817: x28+x36 <=1 
C818: x28+x37-y28_37 <=1 
C819: x28+x39 <=1 
C820: x28+x40 <=1 
C821: x28+x44 <=1 
C822: x28+x46-y28_46 <=1 
C823: x28+x47-y28_47 <=1 
C824: x28+x48-y28_48 <=1 
C825: x28+x53 <=1 
C826: x28+x54 <=1 
C827: x28+x55 <=1 
C828: x28+x56 <=1 
C829: x28+x60 <=1 
C830: x28+x63-y28_63 <=1 
C831: x28+x64 <=1 
C832: x29+x30-y29_30 <=1 
C833: x29+x31 <=1 
C834: x29+x32 <=1 
C835: x29+x34-y29_34 <=1 
C836: x29+x35 <=1 
C837: x29+x36 <=1 
C838: x29+x38 <=1 
C839: x29+x41-y29_41 <=1 
C840: x29+x42-y29_42 <=1 
C841: x29+x43 <=1 
C842: x29+x44-y29_44 <=1 
C843: x29+x45 <=1 
C844: x29+x46 <=1 
C845: x29+x47-y29_47 <=1 
C846: x29+x48 <=1 
C847: x29+x49-y29_49 <=1 
C848: x29+x50-y29_50 <=1 
C849: x29+x52 <=1 
C850: x29+x57-y29_57 <=1 
C851: x29+x61-y29_61 <=1 
C852: x29+x64-y29_64 <=1 
C853: x30+x32 <=1 
C854: x30+x33 <=1 
C855: x30+x34-y30_34 <=1 
C856: x30+x36 <=1 
C857: x30+x37 <=1 
C858: x30+x40 <=1 
C859: x30+x41 <=1 
C860: x30+x42 <=1 
C861: x30+x43-y30_43 <=1 
C862: x30+x44-y30_44 <=1 
C863: x30+x45-y30_45 <=1 
C864: x30+x46-y30_46 <=1 
C865: x30+x47-y30_47 <=1 
C866: x30+x48-y30_48 <=1 
C867: x30+x49 <=1 
C868: x30+x50-y30_50 <=1 
C869: x30+x54 <=1 
C870: x30+x58-y30_58 <=1 
C871: x30+x59 <=1 
C872: x30+x61-y30_61 <=1 
C873: x30+x63-y30_63 <=1 
C874: x31+x37-y31_37 <=1 
C875: x31+x39 <=1 
C876: x31+x40-y31_40 <=1 
C877: x31+x41-y31_41 <=1 
C878: x31+x43-y31_43 <=1 
C879: x31+x44-y31_44 <=1 
C880: x31+x45-y31_45 <=1 
C881: x31+x48 <=1 
C882: x31+x51 <=1 
C883: x31+x53 <=1 
C884: x31+x54-y31_54 <=1 
C885: x31+x56-y31_56 <=1 
C886: x31+x58 <=1 
C887: x31+x60-y31_60 <=1 
C888: x31+x61-y31_61 <=1 
C889: x31+x62-y31_62 <=1 
C890: x31+x64-y31_64 <=1 
C891: x32+x33-y32_33 <=1 
C892: x32+x35-y32_35 <=1 
C893: x32+x36-y32_36 <=1 
C894: x32+x37-y32_37 <=1 
C895: x32+x38 <=1 
C896: x32+x40 <=1 
C897: x32+x42 <=1 
C898: x32+x44 <=1 
C899: x32+x46-y32_46 <=1 
C900: x32+x47 <=1 
C901: x32+x48-y32_48 <=1 
C902: x32+x49 <=1 
C903: x32+x50-y32_50 <=1 
C904: x32+x51-y32_51 <=1 
C905: x32+x52 <=1 
C906: x32+x54-y32_54 <=1 
C907: x32+x55-y32_55 <=1 
C908: x32+x56-y32_56 <=1 
C909: x32+x57-y32_57 <=1 
C910: x32+x58 <=1 
C911: x32+x60-y32_60 <=1 
C912: x32+x61-y32_61 <=1 
C913: x32+x62 <=1 
C914: x33+x37-y33_37 <=1 
C915: x33+x38-y33_38 <=1 
C916: x33+x39 <=1 
C917: x33+x40 <=1 
C918: x33+x42 <=1 
C919: x33+x43-y33_43 <=1 
C920: x33+x44 <=1 
C921: x33+x45-y33_45 <=1 
C922: x33+x47 <=1 
C923: x33+x48 <=1 
C924: x33+x49 <=1 
C925: x33+x51-y33_51 <=1 
C926: x33+x52-y33_52 <=1 
C927: x33+x55 <=1 
C928: x33+x56-y33_56 <=1 
C929: x33+x57 <=1 
C930: x33+x58 <=1 
C931: x33+x60-y33_60 <=1 
C932: x33+x61 <=1 
C933: x33+x64-y33_64 <=1 
C934: x34+x39-y34_39 <=1 
C935: x34+x42-y34_42 <=1 
C936: x34+x44 <=1 
C937: x34+x48-y34_48 <=1 
C938: x34+x53-y34_53 <=1 
C939: x34+x54 <=1 
C940: x34+x55-y34_55 <=1 
C941: x34+x57 <=1 
C942: x34+x58-y34_58 <=1 
C943: x34+x62 <=1 
C944: x34+x63-y34_63 <=1 
C945: x34+x64 <=1 
C946: x35+x36 <=1 
C947: x35+x39-y35_39 <=1 
C948: x35+x41 <=1 
C949: x35+x44 <=1 
C950: x35+x45-y35_45 <=1 
C951: x35+x47 <=1 
C952: x35+x52-y35_52 <=1 
C953: x35+x53 <=1 
C954: x35+x56 <=1 
C955: x35+x57 <=1 
C956: x35+x58 <=1 
C957: x35+x59 <=1 
C958: x35+x62-y35_62 <=1 
C959: x35+x63 <=1 
C960: x36+x37 <=1 
C961: x36+x40-y36_40 <=1 
C962: x36+x41-y36_41 <=1 
C963: x36+x43 <=1 
C964: x36+x44-y36_44 <=1 
C965: x36+x45-y36_45 <=1 
C966: x36+x48 <=1 
C967: x36+x52-y36_52 <=1 
C968: x36+x55-y36_55 <=1 
C969: x36+x56 <=1 
C970: x36+x57 <=1 
C971: x36+x58 <=1 
C972: x36+x59-y36_59 <=1 
C973: x36+x60 <=1 
C974: x36+x61-y36_61 <=1 
C975: x36+x62 <=1 
C976: x36+x63-y36_63 <=1 
C977: x36+x64 <=1 
C978: x37+x40 <=1 
C979: x37+x41-y37_41 <=1 
C980: x37+x45-y37_45 <=1 
C981: x37+x47-y37_47 <=1 
C982: x37+x48-y37_48 <=1 
C983: x37+x49 <=1 
C984: x37+x51-y37_51 <=1 
C985: x37+x53 <=1 
C986: x37+x59 <=1 
C987: x37+x60 <=1 
C988: x37+x61 <=1 
C989: x37+x62 <=1 
C990: x38+x39 <=1 
C991: x38+x41 <=1 
C992: x38+x44 <=1 
C993: x38+x49 <=1 
C994: x38+x51 <=1 
C995: x38+x53-y38_53 <=1 
C996: x38+x54 <=1 
C997: x38+x55 <=1 
C998: x38+x60-y38_60 <=1 
C999: x38+x61-y38_61 <=1 
C1000: x38+x63-y38_63 <=1 
C1001: x38+x64 <=1 
C1002: x39+x42 <=1 
C1003: x39+x48-y39_48 <=1 
C1004: x39+x50-y39_50 <=1 
C1005: x39+x51-y39_51 <=1 
C1006: x39+x53-y39_53 <=1 
C1007: x39+x54 <=1 
C1008: x39+x55 <=1 
C1009: x39+x57-y39_57 <=1 
C1010: x39+x58-y39_58 <=1 
C1011: x39+x59-y39_59 <=1 
C1012: x39+x62 <=1 
C1013: x39+x63-y39_63 <=1 
C1014: x40+x41 <=1 
C1015: x40+x42 <=1 
C1016: x40+x43 <=1 
C1017: x40+x45 <=1 
C1018: x40+x46 <=1 
C1019: x40+x47 <=1 
C1020: x40+x48-y40_48 <=1 
C1021: x40+x49-y40_49 <=1 
C1022: x40+x51 <=1 
C1023: x40+x52-y40_52 <=1 
C1024: x40+x53 <=1 
C1025: x40+x54 <=1 
C1026: x40+x55-y40_55 <=1 
C1027: x40+x58-y40_58 <=1 
C1028: x40+x59-y40_59 <=1 
C1029: x40+x61-y40_61 <=1 
C1030: x41+x42 <=1 
C1031: x41+x45-y41_45 <=1 
C1032: x41+x47 <=1 
C1033: x41+x49-y41_49 <=1 
C1034: x41+x53 <=1 
C1035: x41+x55 <=1 
C1036: x41+x56 <=1 
C1037: x41+x59-y41_59 <=1 
C1038: x41+x60 <=1 
C1039: x41+x62-y41_62 <=1 
C1040: x41+x63 <=1 
C1041: x41+x64 <=1 
C1042: x42+x43 <=1 
C1043: x42+x44 <=1 
C1044: x42+x45 <=1 
C1045: x42+x46 <=1 
C1046: x42+x49 <=1 
C1047: x42+x50 <=1 
C1048: x42+x51-y42_51 <=1 
C1049: x42+x52 <=1 
C1050: x42+x53-y42_53 <=1 
C1051: x42+x54 <=1 
C1052: x42+x55 <=1 
C1053: x42+x56-y42_56 <=1 
C1054: x42+x58-y42_58 <=1 
C1055: x42+x59 <=1 
C1056: x42+x60-y42_60 <=1 
C1057: x42+x61-y42_61 <=1 
C1058: x42+x62 <=1 
C1059: x42+x63 <=1 
C1060: x43+x46 <=1 
C1061: x43+x49-y43_49 <=1 
C1062: x43+x52-y43_52 <=1 
C1063: x43+x53-y43_53 <=1 
C1064: x43+x54-y43_54 <=1 
C1065: x43+x55 <=1 
C1066: x43+x56-y43_56 <=1 
C1067: x43+x57-y43_57 <=1 
C1068: x43+x59-y43_59 <=1 
C1069: x43+x62-y43_62 <=1 
C1070: x43+x63 <=1 
C1071: x43+x64 <=1 
C1072: x44+x45 <=1 
C1073: x44+x46 <=1 
C1074: x44+x48 <=1 
C1075: x44+x49 <=1 
C1076: x44+x50 <=1 
C1077: x44+x51-y44_51 <=1 
C1078: x44+x54-y44_54 <=1 
C1079: x44+x55-y44_55 <=1 
C1080: x44+x57 <=1 
C1081: x44+x58-y44_58 <=1 
C1082: x44+x61 <=1 
C1083: x44+x63 <=1 
C1084: x44+x64 <=1 
C1085: x45+x46 <=1 
C1086: x45+x47 <=1 
C1087: x45+x48 <=1 
C1088: x45+x53 <=1 
C1089: x45+x56 <=1 
C1090: x45+x57-y45_57 <=1 
C1091: x45+x58 <=1 
C1092: x45+x59 <=1 
C1093: x45+x60-y45_60 <=1 
C1094: x45+x61 <=1 
C1095: x45+x62 <=1 
C1096: x46+x47-y46_47 <=1 
C1097: x46+x48 <=1 
C1098: x46+x49 <=1 
C1099: x46+x50-y46_50 <=1 
C1100: x46+x51-y46_51 <=1 
C1101: x46+x52-y46_52 <=1 
C1102: x46+x53-y46_53 <=1 
C1103: x46+x54-y46_54 <=1 
C1104: x46+x58 <=1 
C1105: x46+x59 <=1 
C1106: x46+x60-y46_60 <=1 
C1107: x46+x62-y46_62 <=1 
C1108: x46+x63 <=1 
C1109: x47+x50-y47_50 <=1 
C1110: x47+x51-y47_51 <=1 
C1111: x47+x53-y47_53 <=1 
C1112: x47+x54 <=1 
C1113: x47+x55 <=1 
C1114: x47+x56-y47_56 <=1 
C1115: x48+x49-y48_49 <=1 
C1116: x48+x50 <=1 
C1117: x48+x51 <=1 
C1118: x48+x53-y48_53 <=1 
C1119: x48+x55-y48_55 <=1 
C1120: x48+x58-y48_58 <=1 
C1121: x48+x59-y48_59 <=1 
C1122: x48+x60 <=1 
C1123: x48+x61-y48_61 <=1 
C1124: x48+x62 <=1 
C1125: x48+x64-y48_64 <=1 
C1126: x49+x50 <=1 
C1127: x49+x51 <=1 
C1128: x49+x53-y49_53 <=1 
C1129: x49+x56 <=1 
C1130: x49+x59 <=1 
C1131: x49+x62-y49_62 <=1 
C1132: x49+x63 <=1 
C1133: x50+x52 <=1 
C1134: x50+x54-y50_54 <=1 
C1135: x50+x55 <=1 
C1136: x50+x56 <=1 
C1137: x50+x57-y50_57 <=1 
C1138: x50+x58 <=1 
C1139: x50+x59 <=1 
C1140: x50+x61-y50_61 <=1 
C1141: x50+x62-y50_62 <=1 
C1142: x50+x63-y50_63 <=1 
C1143: x50+x64 <=1 
C1144: x51+x52 <=1 
C1145: x51+x55 <=1 
C1146: x51+x60 <=1 
C1147: x51+x61-y51_61 <=1 
C1148: x51+x63-y51_63 <=1 
C1149: x51+x64 <=1 
C1150: x52+x53 <=1 
C1151: x52+x58 <=1 
C1152: x52+x61-y52_61 <=1 
C1153: x53+x54-y53_54 <=1 
C1154: x53+x58-y53_58 <=1 
C1155: x53+x59 <=1 
C1156: x53+x60-y53_60 <=1 
C1157: x53+x62-y53_62 <=1 
C1158: x53+x63-y53_63 <=1 
C1159: x53+x64-y53_64 <=1 
C1160: x54+x55 <=1 
C1161: x54+x56 <=1 
C1162: x54+x57-y54_57 <=1 
C1163: x54+x58-y54_58 <=1 
C1164: x54+x59-y54_59 <=1 
C1165: x54+x63-y54_63 <=1 
C1166: x55+x57 <=1 
C1167: x55+x59 <=1 
C1168: x55+x60 <=1 
C1169: x55+x61 <=1 
C1170: x55+x62 <=1 
C1171: x55+x64 <=1 
C1172: x56+x57 <=1 
C1173: x56+x58-y56_58 <=1 
C1174: x56+x59 <=1 
C1175: x56+x61-y56_61 <=1 
C1176: x56+x63-y56_63 <=1 
C1177: x56+x64-y56_64 <=1 
C1178: x57+x58-y57_58 <=1 
C1179: x57+x60-y57_60 <=1 
C1180: x57+x64 <=1 
C1181: x58+x59-y58_59 <=1 
C1182: x58+x60-y58_60 <=1 
C1183: x58+x61 <=1 
C1184: x58+x62-y58_62 <=1 
C1185: x58+x64 <=1 
C1186: x59+x60 <=1 
C1187: x59+x61 <=1 
C1188: x59+x63-y59_63 <=1 
C1189: x60+x62 <=1 
C1190: x61+x62-y61_62 <=1 
C1191: x61+x63-y61_63 <=1 
C1192: x61+x64-y61_64 <=1 
C1193: x62+x63-y62_63 <=1 
C1194: x62+x64 <=1 

binary
x0
x1
x2
x3
x4
x5
x6
x7
x8
x9
x10
x11
x12
x13
x14
x15
x16
x17
x18
x19
x20
x21
x22
x23
x24
x25
x26
x27
x28
x29
x30
x31
x32
x33
x34
x35
x36
x37
x38
x39
x40
x41
x42
x43
x44
x45
x46
x47
x48
x49
x50
x51
x52
x53
x54
x55
x56
x57
x58
x59
x60
x61
x62
x63
x64
