problem_generation/data/GISP/train/er_n=65_m=1194_p=0.60_SET2_setparam=100.00_alpha=0.50_786.sol
objective value:                                 1179
x9                                                  1 	(obj:100)
x22                                                 1 	(obj:100)
x28                                                 1 	(obj:100)
x31                                                 1 	(obj:100)
x33                                                 1 	(obj:100)
x34                                                 1 	(obj:100)
x35                                                 1 	(obj:100)
x37                                                 1 	(obj:100)
x38                                                 1 	(obj:100)
x43                                                 1 	(obj:100)
x45                                                 1 	(obj:100)
x50                                                 1 	(obj:100)
y33_38                                              1 	(obj:-1)
y22_28                                              1 	(obj:-1)
y22_37                                              1 	(obj:-1)
y33_37                                              1 	(obj:-1)
y9_34                                               1 	(obj:-1)
y35_45                                              1 	(obj:-1)
y31_43                                              1 	(obj:-1)
y28_37                                              1 	(obj:-1)
y9_33                                               1 	(obj:-1)
y31_37                                              1 	(obj:-1)
y22_50                                              1 	(obj:-1)
y33_45                                              1 	(obj:-1)
y22_35                                              1 	(obj:-1)
y9_45                                               1 	(obj:-1)
y31_45                                              1 	(obj:-1)
y9_35                                               1 	(obj:-1)
y22_34                                              1 	(obj:-1)
y22_43                                              1 	(obj:-1)
y22_38                                              1 	(obj:-1)
y37_45                                              1 	(obj:-1)
y33_43                                              1 	(obj:-1)
